c Rsat version 2.01
v -1 -2 -3 -4 -5 -6 -7 -8 -9 -10 -11 -12 -13 -14 -15 -16 -17 -18 -19 -20 -21 -22 -23 -24 -27 -28 -29 -30 -31 -32 -33 -38 -39 -40 -41 -42 -49 -50 -51 -52 -59 -60 -61 -62 -69 -70 -71 -72 -63 -73 -68 -78 -79 -80 -81 -82 -83 -74 -84 -77 -87 -88 -89 -90 -91 -92 -93 -94 -85 -95 -86 -96 -97 -98 -99 -100 76 75 -67 66 -65 64 58 48 57 -47 37 -36 -46 26 56 -55 45 35 25 -34 44 -54 43 53 0
c 
c 
s SATISFIABLE
c CNF stats: (100 vars, 151 clauses)
c Decisions: 8
c Conflicts: 7
c Running time: 0.00100 seconds
